(set-logic HORN)
(set-info :source |
    Benchmark: C_VC
    Output by Princess (http://www.philipp.ruemmer.org/princess.shtml)
|)
(set-info :status sat)
(declare-heap Heap Addr HeapObject
 defObj
 ((HeapObject 0) (node 0)) (
  (
   (O_Int (getInt Int))
   (O_Addr (getAddr Addr))
   (O_node (getnode node))
   (defObj)
  )
  (
   (node (data Int) (next Addr))
  )
))
(declare-fun inv_main10 (Heap Int Int Int Int Addr) Bool)
(declare-fun inv_main17 (Heap Int Int Int Int Addr Int Addr) Bool)
(declare-fun inv_main20 (Heap Int Int Int Int Addr Int Addr Int) Bool)
(declare-fun inv_main23 (Heap Int Int Int Int Addr Int Addr) Bool)
(declare-fun inv_main25 (Heap Int Int Int Int Addr Addr) Bool)
(declare-fun inv_main37 (Heap Int Int Addr Int Int Int Int Addr) Bool)
(declare-fun inv_main4 (Heap Int Int) Bool)
(declare-fun inv_main40 (Heap Int Int Addr Int Int Int Int Addr Int) Bool)
(declare-fun inv_main43 (Heap Int Int Addr Int Int Int Int Addr) Bool)
(declare-fun inv_main48 (Heap Int Int Addr Int Int Int Addr Addr) Bool)
(declare-fun inv_main49 (Heap Int Int Addr Int Int Int Addr Addr) Bool)
(declare-fun inv_main50 (Heap Int Int Addr Int Int Int Addr Addr) Bool)
(declare-fun inv_main53 (Heap Int Int Addr Int Addr Int) Bool)
(declare-fun inv_main55 (Heap Int Int Addr Int Addr Int) Bool)
(declare-fun inv_main57 (Heap Int Int Addr Int Addr Int) Bool)
(declare-fun inv_main58 (Heap Int Int Addr Int Addr Int) Bool)
(declare-fun inv_main59 (Heap Int Int Addr Int Addr Int Addr) Bool)
(declare-fun inv_main74 (Heap Int Int Addr Int Addr Int Addr) Bool)
(declare-fun inv_main77 (Heap Int Int Addr Int Addr Int) Bool)
(assert (forall ((var0 Heap)) (or (not (= var0 emptyHeap)) (inv_main4 var0 2 1))))
(assert (forall ((var0 Int) (var1 node) (var2 Addr) (var3 Heap) (var4 Int) (var5 Int) (var6 Int) (var7 Int) (var8 Int) (var9 Int) (var10 Int) (var11 Addr) (var12 Addr) (var13 Int) (var14 Heap) (var15 Int)) (or (not (and (inv_main10 var3 var10 var13 var0 var4 var12) (and (and (not (= nullAddr var11)) (and (and (and (and (and (and (and (and (= var14 (newHeap (alloc var3 (O_node var1)))) (= var9 var10)) (= var15 var13)) (= var2 var12)) (= var8 5)) (= var5 3)) (= var6 5)) (= var7 5)) (= var11 (newAddr (alloc var3 (O_node var1)))))) (not (<= 0 (+ var0 (- 1))))))) (inv_main37 var14 var9 var15 var2 var8 var5 var6 var7 var11))))
(assert (forall ((var0 Addr) (var1 Addr) (var2 Addr) (var3 Addr) (var4 Heap) (var5 Int) (var6 Int) (var7 Addr) (var8 Int) (var9 Int) (var10 Heap) (var11 Addr) (var12 Int) (var13 Addr) (var14 Heap) (var15 Addr) (var16 Int) (var17 Addr) (var18 Int) (var19 Int) (var20 Int) (var21 Addr) (var22 Int) (var23 Addr) (var24 Int) (var25 Int)) (or (not (and (inv_main74 var4 var12 var20 var13 var19 var7 var6 var17) (and (not (= var21 nullAddr)) (and (and (and (and (and (and (and (and (and (= var14 var4) (= var24 var12)) (= var22 var20)) (= var0 var13)) (= var25 var19)) (= var11 var7)) (= var8 var6)) (= var3 var17)) (= var1 (next (getnode (read var4 var17))))) (and (and (and (and (and (and (and (and (= var10 (write var14 var3 defObj)) (= var16 var24)) (= var9 var22)) (= var2 var0)) (= var5 var25)) (= var23 var11)) (= var18 var8)) (= var15 var3)) (= var21 var1)))))) (inv_main74 var10 var16 var9 var2 var5 var23 var18 var21))))
(assert (forall ((var0 Addr) (var1 Heap) (var2 Int) (var3 Addr) (var4 Int) (var5 Int) (var6 Int)) (or (not (and (inv_main53 var1 var6 var5 var0 var4 var3 var2) (and (and (not (= var0 nullAddr)) (= var2 (+ 1 var6))) (= (next (getnode (read var1 var3))) nullAddr)))) (inv_main74 var1 var6 var5 var0 var4 var3 var2 var0))))
(assert (forall ((var0 Addr) (var1 Heap) (var2 Int) (var3 Addr) (var4 Int) (var5 Int) (var6 Int)) (or (not (and (inv_main57 var1 var6 var5 var0 var4 var3 var2) (and (and (not (= var0 nullAddr)) (= (+ var2 1) (+ 1 var6))) (= var4 (data (getnode (read var1 var3))))))) (inv_main74 var1 var6 var5 var0 var4 var3 (+ var2 1) var0))))
(assert (forall ((var0 Int) (var1 Int) (var2 Heap) (var3 Int) (var4 Int) (var5 Int) (var6 Heap) (var7 Int) (var8 Addr) (var9 Int) (var10 Addr) (var11 Addr) (var12 Int) (var13 Addr) (var14 Int) (var15 Int)) (or (not (and (inv_main23 var2 var7 var12 var1 var3 var10 var15 var11) (and (and (and (and (and (and (and (= var6 (write var2 var11 (O_node (node var15 (next (getnode (read var2 var11))))))) (= var4 var7)) (= var5 var12)) (= var14 var1)) (= var9 var3)) (= var8 var10)) (= var0 var15)) (= var13 var11)))) (inv_main25 var6 var4 var5 var14 var9 var8 var13))))
(assert (forall ((var0 Addr) (var1 Heap) (var2 Int) (var3 Addr) (var4 Int) (var5 Int) (var6 Addr) (var7 Int)) (or (not (and (inv_main59 var1 var7 var5 var0 var4 var3 var2 var6) (not (= var5 (data (getnode (read var1 var3))))))) (inv_main77 var1 var7 var5 var0 var4 var3 var2))))
(assert (forall ((var0 Addr) (var1 Heap) (var2 Int) (var3 Addr) (var4 Int) (var5 Int) (var6 Int)) (or (not (and (inv_main57 var1 var6 var5 var0 var4 var3 var2) (not (= var4 (data (getnode (read var1 var3))))))) (inv_main77 var1 var6 var5 var0 var4 var3 var2))))
(assert (forall ((var0 Addr) (var1 Heap) (var2 Int) (var3 Addr) (var4 Int) (var5 Int) (var6 Int)) (or (not (and (inv_main53 var1 var6 var5 var0 var4 var3 var2) (and (not (= var2 (+ 1 var6))) (= (next (getnode (read var1 var3))) nullAddr)))) (inv_main77 var1 var6 var5 var0 var4 var3 var2))))
(assert (forall ((var0 Addr) (var1 Heap) (var2 Int) (var3 Addr) (var4 Int) (var5 Int) (var6 Int)) (or (not (and (inv_main57 var1 var6 var5 var0 var4 var3 var2) (and (not (= (+ var2 1) (+ 1 var6))) (= var4 (data (getnode (read var1 var3))))))) (inv_main77 var1 var6 var5 var0 var4 var3 (+ var2 1)))))
(assert (forall ((var0 Addr) (var1 Int) (var2 Heap) (var3 Addr) (var4 Int) (var5 Int) (var6 Addr) (var7 Int) (var8 Int)) (or (not (and (inv_main48 var2 var8 var5 var0 var4 var1 var7 var6 var3) (not (= (next (getnode (read var2 var3))) nullAddr)))) (inv_main50 var2 var8 var5 var0 var4 var1 var7 var6 var3))))
(assert (forall ((var0 Int) (var1 Heap) (var2 Addr) (var3 Addr) (var4 Int) (var5 Int) (var6 Int) (var7 Int) (var8 Int)) (or (not (inv_main20 var1 var8 var4 var0 var5 var2 var7 var3 var6)) (inv_main20 var1 var8 var4 var0 var5 var2 var7 var3 var6))))
(assert (forall ((var0 Int) (var1 Int) (var2 Heap) (var3 Int) (var4 Int) (var5 Addr) (var6 Int) (var7 Int) (var8 Int) (var9 node) (var10 Addr) (var11 Addr) (var12 Int) (var13 Int) (var14 Heap)) (or (not (and (inv_main10 var2 var8 var12 var0 var3 var11) (and (and (= nullAddr var5) (and (and (and (and (and (and (and (= var14 (newHeap (alloc var2 (O_node var9)))) (= var4 var8)) (= var1 var12)) (= var7 var0)) (= var6 var3)) (= var10 var11)) (= var13 var3)) (= var5 (newAddr (alloc var2 (O_node var9)))))) (<= 0 (+ var0 (- 1)))))) (inv_main20 var14 var4 var1 var7 var6 var10 var13 var5 1))))
(assert (forall ((var0 Addr) (var1 Int) (var2 Heap) (var3 Int) (var4 Int) (var5 Int) (var6 Int) (var7 Int) (var8 Addr)) (or (not (inv_main37 var2 var7 var5 var0 var4 var1 var6 var3 var8)) (inv_main43 (write var2 var8 (O_node (node (data (getnode (read var2 var8))) nullAddr))) var7 var5 var0 var4 var1 var6 var3 var8))))
(assert (forall ((var0 Addr) (var1 Heap) (var2 Int) (var3 Addr) (var4 Int) (var5 Int) (var6 Int)) (or (not (and (inv_main55 var1 var6 var5 var0 var4 var3 var2) (= (next (getnode (read var1 var3))) nullAddr))) (inv_main57 var1 var6 var5 var0 var4 var3 var2))))
(assert (forall ((var0 Int) (var1 Addr) (var2 node) (var3 Addr) (var4 Int) (var5 Int) (var6 Heap) (var7 Int) (var8 Heap) (var9 Int) (var10 Int) (var11 Addr) (var12 Int) (var13 Int) (var14 Int)) (or (not (and (inv_main10 var6 var9 var13 var0 var7 var11) (and (and (not (= nullAddr var3)) (and (and (and (and (and (and (and (= var8 (newHeap (alloc var6 (O_node var2)))) (= var4 var9)) (= var12 var13)) (= var14 var0)) (= var10 var7)) (= var1 var11)) (= var5 var7)) (= var3 (newAddr (alloc var6 (O_node var2)))))) (<= 0 (+ var0 (- 1)))))) (inv_main17 var8 var4 var12 var14 var10 var1 var5 var3))))
(assert (forall ((var0 Int) (var1 Heap) (var2 Addr) (var3 Addr) (var4 Int) (var5 Addr) (var6 Addr) (var7 Int) (var8 Int) (var9 Int) (var10 Int) (var11 Addr) (var12 Int) (var13 Int) (var14 Int) (var15 Addr) (var16 Int) (var17 Addr) (var18 Heap)) (or (not (and (inv_main50 var1 var4 var13 var6 var12 var9 var16 var15 var11) (and (and (and (and (and (and (and (and (and (= var18 var1) (= var14 var4)) (= var7 var13)) (= var2 var6)) (= var8 var12)) (= var0 var9)) (= var10 var16)) (= var3 var15)) (= var17 var11)) (= var5 (next (getnode (read var1 var11))))))) (inv_main48 var18 var14 var7 var2 var8 var0 var10 var3 var5))))
(assert (forall ((var0 Int) (var1 Heap) (var2 Heap) (var3 Int) (var4 Int) (var5 Int) (var6 Addr) (var7 Addr) (var8 Int) (var9 Int) (var10 Int) (var11 Int) (var12 Addr) (var13 Int) (var14 Int) (var15 Int) (var16 Int) (var17 Addr)) (or (not (and (inv_main43 var2 var5 var15 var6 var14 var10 var16 var13 var7) (and (not (= nullAddr var12)) (and (and (and (and (and (and (and (and (= var1 (write var2 var7 (O_node (node var13 (next (getnode (read var2 var7))))))) (= var4 var5)) (= var8 var15)) (= var12 var6)) (= var3 var14)) (= var11 var10)) (= var0 var16)) (= var9 var13)) (= var17 var7))))) (inv_main48 var1 var4 var8 var12 var3 var11 var0 var17 var12))))
(assert (forall ((var0 Addr) (var1 Int) (var2 Int) (var3 Heap) (var4 Int) (var5 Int) (var6 Int) (var7 Int) (var8 Int) (var9 Addr)) (or (not (inv_main40 var3 var8 var6 var0 var5 var1 var7 var4 var9 var2)) (inv_main40 var3 var8 var6 var0 var5 var1 var7 var4 var9 var2))))
(assert (forall ((var0 Int) (var1 Int) (var2 node) (var3 Heap) (var4 Int) (var5 Addr) (var6 Int) (var7 Int) (var8 Int) (var9 Int) (var10 Int) (var11 Int) (var12 Addr) (var13 Int) (var14 Addr) (var15 Heap)) (or (not (and (inv_main10 var3 var7 var13 var1 var6 var12) (and (and (= nullAddr var14) (and (and (and (and (and (and (and (and (= var15 (newHeap (alloc var3 (O_node var2)))) (= var10 var7)) (= var8 var13)) (= var5 var12)) (= var4 5)) (= var0 3)) (= var11 5)) (= var9 5)) (= var14 (newAddr (alloc var3 (O_node var2)))))) (not (<= 0 (+ var1 (- 1))))))) (inv_main40 var15 var10 var8 var5 var4 var0 var11 var9 var14 1))))
(assert (forall ((var0 Addr) (var1 Heap) (var2 Int) (var3 Addr) (var4 Int) (var5 Int) (var6 Int)) (or (not (and (inv_main55 var1 var6 var5 var0 var4 var3 var2) (not (= (next (getnode (read var1 var3))) nullAddr)))) (inv_main58 var1 var6 var5 var0 var4 var3 var2))))
(assert (forall ((var0 Int) (var1 Heap) (var2 Addr) (var3 Addr) (var4 Int) (var5 Int) (var6 Int) (var7 Int)) (or (not (inv_main17 var1 var7 var4 var0 var5 var2 var6 var3)) (inv_main23 (write var1 var3 (O_node (node (data (getnode (read var1 var3))) nullAddr))) var7 var4 var0 var5 var2 var6 var3))))
(assert (forall ((var0 Addr) (var1 Heap) (var2 Int) (var3 Addr) (var4 Int) (var5 Int) (var6 Int)) (or (not (inv_main58 var1 var6 var5 var0 var4 var3 var2)) (inv_main59 var1 var6 var5 var0 var4 var3 var2 (next (getnode (read var1 var3)))))))
(assert (forall ((var0 Int) (var1 Int) (var2 Heap) (var3 Int) (var4 Int) (var5 Addr) (var6 Int) (var7 Addr) (var8 Int) (var9 Int) (var10 Addr) (var11 Int) (var12 Addr) (var13 Heap)) (or (not (and (inv_main25 var2 var6 var11 var1 var4 var10 var12) (and (and (and (and (and (and (= var13 (write var2 var12 (O_node (node (data (getnode (read var2 var12))) var10)))) (= var3 var6)) (= var9 var11)) (= var0 var1)) (= var8 var4)) (= var7 var10)) (= var5 var12)))) (inv_main10 var13 var3 var9 (+ var0 (- 1)) var8 var5))))
(assert (forall ((var0 Int) (var1 Addr) (var2 Int) (var3 Heap) (var4 Int) (var5 Int) (var6 Heap) (var7 Int) (var8 Int)) (or (not (and (inv_main4 var3 var8 var4) (and (and (and (and (and (= var6 var3) (= var5 var8)) (= var0 var4)) (= var2 var8)) (= var7 var4)) (= var1 nullAddr)))) (inv_main10 var6 var5 var0 var2 var7 var1))))
(assert (forall ((var0 Addr) (var1 Int) (var2 Heap) (var3 Addr) (var4 Int) (var5 Int) (var6 Addr) (var7 Int) (var8 Int)) (or (not (and (inv_main48 var2 var8 var5 var0 var4 var1 var7 var6 var3) (= (next (getnode (read var2 var3))) nullAddr))) (inv_main49 var2 var8 var5 var0 var4 var1 var7 var6 var3))))
(assert (forall ((var0 Addr) (var1 Heap) (var2 Int) (var3 Addr) (var4 Int) (var5 Int) (var6 Int)) (or (not (and (inv_main53 var1 var6 var5 var0 var4 var3 var2) (not (= (next (getnode (read var1 var3))) nullAddr)))) (inv_main55 var1 var6 var5 var0 var4 var3 var2))))
(assert (forall ((var0 Addr) (var1 Heap) (var2 Int) (var3 Addr) (var4 Int) (var5 Int) (var6 Addr) (var7 Int)) (or (not (and (inv_main59 var1 var7 var5 var0 var4 var3 var2 var6) (= var5 (data (getnode (read var1 var3)))))) (inv_main55 var1 var7 var5 var0 var4 var6 (+ var2 1)))))
(assert (forall ((var0 Int) (var1 Heap) (var2 Int) (var3 Heap) (var4 Int) (var5 Addr) (var6 Addr) (var7 Int) (var8 Addr) (var9 Int) (var10 Int) (var11 Addr) (var12 Int) (var13 Int) (var14 Int) (var15 Int)) (or (not (and (inv_main49 var1 var4 var10 var6 var9 var7 var12 var11 var8) (and (and (and (and (and (and (= var3 (write var1 var8 (O_node (node (data (getnode (read var1 var8))) var11)))) (= var2 var4)) (= var15 var10)) (= var5 var6)) (= var14 var9)) (= var0 var7)) (= var13 var12)))) (inv_main53 var3 var2 var15 var5 var14 var5 0))))
(assert (forall ((var0 Int) (var1 Heap) (var2 Heap) (var3 Int) (var4 Int) (var5 Int) (var6 Addr) (var7 Addr) (var8 Int) (var9 Int) (var10 Int) (var11 Int) (var12 Addr) (var13 Int) (var14 Int) (var15 Int) (var16 Int) (var17 Addr)) (or (not (and (inv_main43 var2 var5 var15 var6 var14 var10 var16 var13 var7) (and (= nullAddr var12) (and (and (and (and (and (and (and (and (= var1 (write var2 var7 (O_node (node var13 (next (getnode (read var2 var7))))))) (= var4 var5)) (= var8 var15)) (= var12 var6)) (= var3 var14)) (= var11 var10)) (= var0 var16)) (= var9 var13)) (= var17 var7))))) (inv_main53 var1 var4 var8 var17 var3 var17 0))))
(assert (forall ((var0 Int) (var1 Heap) (var2 Addr) (var3 Addr) (var4 Int) (var5 Int) (var6 Int) (var7 Int)) (not (and (inv_main17 var1 var7 var4 var0 var5 var2 var6 var3) (not (is-O_node (read var1 var3)))))))
(assert (forall ((var0 Int) (var1 Heap) (var2 Addr) (var3 Addr) (var4 Int) (var5 Int) (var6 Int) (var7 Int)) (not (and (inv_main23 var1 var7 var4 var0 var5 var2 var6 var3) (not (is-O_node (read var1 var3)))))))
(assert (forall ((var0 Int) (var1 Heap) (var2 Addr) (var3 Int) (var4 Int) (var5 Addr) (var6 Int)) (not (and (inv_main25 var1 var6 var3 var0 var4 var2 var5) (not (is-O_node (read var1 var5)))))))
(assert (forall ((var0 Addr) (var1 Int) (var2 Heap) (var3 Int) (var4 Int) (var5 Int) (var6 Int) (var7 Int) (var8 Addr)) (not (and (inv_main37 var2 var7 var5 var0 var4 var1 var6 var3 var8) (not (is-O_node (read var2 var8)))))))
(assert (forall ((var0 Addr) (var1 Int) (var2 Heap) (var3 Int) (var4 Int) (var5 Int) (var6 Int) (var7 Int) (var8 Addr)) (not (and (inv_main43 var2 var7 var5 var0 var4 var1 var6 var3 var8) (not (is-O_node (read var2 var8)))))))
(assert (forall ((var0 Addr) (var1 Int) (var2 Heap) (var3 Addr) (var4 Int) (var5 Int) (var6 Addr) (var7 Int) (var8 Int)) (not (and (inv_main48 var2 var8 var5 var0 var4 var1 var7 var6 var3) (not (is-O_node (read var2 var3)))))))
(assert (forall ((var0 Addr) (var1 Int) (var2 Heap) (var3 Addr) (var4 Int) (var5 Int) (var6 Addr) (var7 Int) (var8 Int)) (not (and (inv_main50 var2 var8 var5 var0 var4 var1 var7 var6 var3) (not (is-O_node (read var2 var3)))))))
(assert (forall ((var0 Addr) (var1 Int) (var2 Heap) (var3 Addr) (var4 Int) (var5 Int) (var6 Addr) (var7 Int) (var8 Int)) (not (and (inv_main49 var2 var8 var5 var0 var4 var1 var7 var6 var3) (not (is-O_node (read var2 var3)))))))
(assert (forall ((var0 Addr) (var1 Heap) (var2 Int) (var3 Addr) (var4 Int) (var5 Int) (var6 Int)) (not (and (inv_main53 var1 var6 var5 var0 var4 var3 var2) (not (is-O_node (read var1 var3)))))))
(assert (forall ((var0 Addr) (var1 Heap) (var2 Int) (var3 Addr) (var4 Int) (var5 Int) (var6 Int)) (not (and (inv_main55 var1 var6 var5 var0 var4 var3 var2) (not (is-O_node (read var1 var3)))))))
(assert (forall ((var0 Addr) (var1 Heap) (var2 Int) (var3 Addr) (var4 Int) (var5 Int) (var6 Int)) (not (and (inv_main58 var1 var6 var5 var0 var4 var3 var2) (not (is-O_node (read var1 var3)))))))
(assert (forall ((var0 Addr) (var1 Heap) (var2 Int) (var3 Addr) (var4 Int) (var5 Int) (var6 Addr) (var7 Int)) (not (and (inv_main59 var1 var7 var5 var0 var4 var3 var2 var6) (not (is-O_node (read var1 var3)))))))
(assert (forall ((var0 Addr) (var1 Heap) (var2 Int) (var3 Addr) (var4 Int) (var5 Int) (var6 Int)) (not (and (inv_main57 var1 var6 var5 var0 var4 var3 var2) (not (is-O_node (read var1 var3)))))))
(assert (forall ((var0 Addr) (var1 Addr) (var2 Heap) (var3 Int) (var4 Addr) (var5 Int) (var6 Int) (var7 Int)) (not (and (inv_main74 var2 var7 var6 var0 var5 var4 var3 var1) (not (is-O_node (read var2 var1)))))))
(assert (forall ((var0 Addr) (var1 Heap) (var2 Int) (var3 Addr) (var4 Int) (var5 Int) (var6 Int)) (not (inv_main77 var1 var6 var5 var0 var4 var3 var2))))
(check-sat)
